11
0 50 85 76 55 24 32 80 47 36 75 
79 0 89 85 69 69 88 34 52 57 91 
84 66 0 32 44 61 94 87 60 86 6 
29 73 22 0 39 60 71 88 15 57 39 
29 66 42 85 0 39 84 67 89 81 34 
23 45 56 35 96 0 17 29 53 29 11 
73 28 87 91 61 18 0 70 21 17 15 
38 18 15 99 49 49 80 0 82 11 27 
23 8 51 85 81 53 47 88 0 60 10 
91 24 38 57 30 58 100 9 59 0 8 
24 30 62 55 95 63 89 95 47 36 0 
